# Objective value = 1.3554149999999998e+04
I_0_0 2390
I_0_1 3297
I_0_2 2.8899999999999991e+03
I_0_3 3.0469999999999995e+03
I_0_4 3004
I_0_5 2.6590000000000009e+03
I_0_6 3.5660000000000005e+03
I_1_0 196
I_1_1 98
I_1_2 196
I_1_3 98
I_1_4 0
I_1_5 196
I_1_6 9.7999999999999915e+01
I_2_0 188
I_2_1 94
I_2_2 1.8800000000000023e+02
I_2_3 9.4000000000000057e+01
I_2_4 2.1316282072803006e-14
I_2_5 188
I_2_6 9.4000000000000014e+01
I_3_0 114
I_3_1 57
I_3_2 114
I_3_3 57
I_3_4 0
I_3_5 1.1399999999999996e+02
I_3_6 5.6999999999999957e+01
I_4_0 94
I_4_1 47
I_4_2 9.4000000000000128e+01
I_4_3 4.6999999999999979e+01
I_4_4 0
I_4_5 9.4000000000000028e+01
I_4_6 4.7000000000000007e+01
I_5_0 78
I_5_1 7.7937656328685989e-14
I_5_2 7.7999999999999929e+01
I_5_3 7.7937656328685989e-14
I_5_4 7.7999999999999943e+01
I_5_5 7.7999999999999986e+01
I_5_6 -6.2241878318047839e-14
I_6_0 55
I_6_1 0
I_6_2 55
I_6_3 0
I_6_4 55
I_6_5 5.4999999999999972e+01
I_6_6 0
I_7_0 86
I_7_1 0
I_7_2 86
I_7_3 0
I_7_4 86
I_7_5 8.5999999999999929e+01
I_7_6 0
I_8_0 190
I_8_1 95
I_8_2 1.1368683772161603e-13
I_8_3 190
I_8_4 190
I_8_5 95
I_8_6 1.1901590823981678e-13
I_9_0 180
I_9_1 90
I_9_2 2.8421709430404007e-13
I_9_3 1.7999999999999974e+02
I_9_4 1.7999999999999957e+02
I_9_5 90.0000000000001
I_9_6 1.2967404927621828e-13
I_10_0 38
I_10_1 0
I_10_2 3.7999999999999993e+01
I_10_3 -2.3758772726978290e-14
I_10_4 3.8000000000000007e+01
I_10_5 3.7999999999999922e+01
I_10_6 7.4884543010966809e-14
I_11_0 130
I_11_1 65
I_11_2 1.1368683772161603e-13
I_11_3 130
I_11_4 130
I_11_5 6.5000000000000043e+01
I_11_6 -2.8421709430404007e-14
I_12_0 22
I_12_1 11
I_12_2 2.2000000000000014e+01
I_12_3 1.0999999999999979e+01
I_12_4 -2.3980817331903381e-14
I_12_5 2.1999999999999932e+01
I_12_6 1.0999999999999932e+01
I_13_0 38
I_13_1 19
I_13_2 3.8000000000000036e+01
I_13_3 1.8999999999999989e+01
I_13_4 38
I_13_5 1.8999999999999954e+01
I_13_6 -3.9612757518625585e-13
I_14_0 30
I_14_1 2.6645352591003757e-14
I_14_2 30
I_14_3 0
I_14_4 30
I_14_5 2.9999999999999996e+01
I_14_6 -2.3939183968479938e-14
I_15_0 44
I_15_1 -6.3504757008558954e-14
I_15_2 4.4000000000000043e+01
I_15_3 4.5186077102243871e-14
I_15_4 4.3999999999999957e+01
I_15_5 4.3999999999999986e+01
I_15_6 0
q_1_0 0
q_1_1 196
q_1_2 0
q_1_3 0
q_1_4 2.9400000000000006e+02
q_1_5 0
q_2_0 0
q_2_1 1.8800000000000054e+02
q_2_2 -1.7053025658242404e-13
q_2_3 0
q_2_4 282
q_2_5 0
q_3_0 0
q_3_1 1.1400000000000001e+02
q_3_2 0
q_3_3 0
q_3_4 1.7099999999999989e+02
q_3_5 1.4210854715202004e-14
q_4_0 0
q_4_1 94.0000000000001
q_4_2 -1.5631940186722204e-13
q_4_3 1.8873791418627156e-15
q_4_4 141
q_4_5 -1.8873791418627156e-15
q_5_0 7.7937656328685989e-14
q_5_1 1.5599999999999986e+02
q_5_2 1.48991929904696e-13
q_5_3 1.5599999999999989e+02
q_5_4 7.8000000000000043e+01
q_5_5 -4.8031023602845835e-14
q_6_0 0
q_6_1 110
q_6_2 0
q_6_3 110
q_6_4 5.4999999999999972e+01
q_6_5 2.8421709430404007e-14
q_7_0 0
q_7_1 172
q_7_2 0
q_7_3 172
q_7_4 8.5999999999999929e+01
q_7_5 7.1054273576010019e-14
q_8_0 0
q_8_1 2.8421709430404007e-14
q_8_2 2.8499999999999989e+02
q_8_3 95
q_8_4 0
q_8_5 1.1901590823981678e-13
q_9_0 0
q_9_1 2.0605739337042905e-13
q_9_2 2.6999999999999949e+02
q_9_3 8.9999999999999886e+01
q_9_4 4.7251091928046662e-13
q_9_5 4.2632564145606011e-14
q_10_0 0
q_10_1 76
q_10_2 -1.6653345369377288e-14
q_10_3 7.6000000000000028e+01
q_10_4 3.7999999999999915e+01
q_10_5 1.5304424394457783e-13
q_11_0 0
q_11_1 1.8118839761882555e-13
q_11_2 1.9499999999999989e+02
q_11_3 6.5000000000000014e+01
q_11_4 0
q_11_5 -2.4868995751603507e-14
q_12_0 0
q_12_1 2.2000000000000021e+01
q_12_2 -3.7303493627405260e-14
q_12_3 -4.4408920985007524e-16
q_12_4 3.2999999999999986e+01
q_12_5 2.4424906541753444e-15
q_13_0 0
q_13_1 3.8000000000000050e+01
q_13_2 -5.0515147620444320e-14
q_13_3 3.8000000000000007e+01
q_13_4 9.7699626167013776e-15
q_13_5 -2.3803181647963356e-13
q_14_0 2.6645352591003757e-14
q_14_1 5.9999999999999972e+01
q_14_2 0
q_14_3 60
q_14_4 2.9999999999999996e+01
q_14_5 -2.0386470289679437e-14
q_15_0 -6.3504757008558954e-14
q_15_1 8.8000000000000114e+01
q_15_2 2.55351295663786e-15
q_15_3 8.7999999999999915e+01
q_15_4 4.4000000000000028e+01
q_15_5 1.4210854715202004e-14
y_0_0 -5.5511151231257827e-17
y_0_1 1
y_0_2 1
y_0_3 1
y_0_4 1
y_0_5 0
y_1_0 0
y_1_1 1
y_1_2 0
y_1_3 0
y_1_4 1
y_1_5 0
y_2_0 0
y_2_1 1.0000000000000024e+00
y_2_2 -8.3266726846886741e-16
y_2_3 0
y_2_4 1
y_2_5 0
y_3_0 0
y_3_1 9.9999999999999989e-01
y_3_2 1.1102230246251565e-16
y_3_3 0
y_3_4 9.9999999999999967e-01
y_3_5 1.1102230246251565e-16
y_4_0 0
y_4_1 1.0000000000000009e+00
y_4_2 -9.9920072216264089e-16
y_4_3 0
y_4_4 1
y_4_5 0
y_5_0 9.9920072216264089e-16
y_5_1 0.999999999999999
y_5_2 9.9920072216264089e-16
y_5_3 9.9999999999999922e-01
y_5_4 9.9999999999999989e-01
y_5_5 -7.9797279894933126e-16
y_6_0 0
y_6_1 1
y_6_2 0
y_6_3 1
y_6_4 9.9999999999999944e-01
y_6_5 0
y_7_0 0
y_7_1 1
y_7_2 0
y_7_3 1
y_7_4 9.9999999999999922e-01
y_7_5 0
y_8_0 0
y_8_1 0
y_8_2 1
y_8_3 1
y_8_4 0
y_8_5 1.27675647831893e-15
y_9_0 0
y_9_1 1.0616507672978059e-15
y_9_2 9.9999999999999889e-01
y_9_3 9.9999999999999512e-01
y_9_4 1.2906342661267445e-15
y_9_5 0
y_10_0 0
y_10_1 9.9999999999999989e-01
y_10_2 -6.2523086123627081e-16
y_10_3 1.0000000000000002e+00
y_10_4 0.999999999999998
y_10_5 1.9706458687096529e-15
y_11_0 0
y_11_1 2.6090241078691179e-15
y_11_2 1
y_11_3 1.0000000000000002e+00
y_11_4 0
y_11_5 -4.1633363423443370e-16
y_12_0 0
y_12_1 1.0000000000000016e+00
y_12_2 -1.3877787807814457e-15
y_12_3 0
y_12_4 1
y_12_5 0
y_13_0 0
y_13_1 1.0000000000000011e+00
y_13_2 -8.4727546616129975e-16
y_13_3 1.0000000000000004e+00
y_13_4 -1.8873791418627661e-15
y_13_5 1.9706458687096529e-15
y_14_0 8.8817841970012523e-16
y_14_1 1
y_14_2 0
y_14_3 1
y_14_4 9.9999999999999989e-01
y_14_5 -7.9797279894933126e-16
y_15_0 -1.4432899320127035e-15
y_15_1 1.0000000000000009e+00
y_15_2 1.0269562977782698e-15
y_15_3 9.9999999999999911e-01
y_15_4 9.9999999999999967e-01
y_15_5 0
x_0_1_0 0
x_0_1_1 0
x_0_1_2 0
x_0_1_3 0
x_0_1_4 0
x_0_1_5 0
x_0_2_0 0
x_0_2_1 0
x_0_2_2 0
x_0_2_3 0
x_0_2_4 0
x_0_2_5 0
x_0_3_0 0
x_0_3_1 0
x_0_3_2 0
x_0_3_3 0
x_0_3_4 0
x_0_3_5 0
x_0_4_0 0
x_0_4_1 0
x_0_4_2 0
x_0_4_3 0
x_0_4_4 0
x_0_4_5 0
x_0_5_0 0
x_0_5_1 0
x_0_5_2 0
x_0_5_3 0
x_0_5_4 0
x_0_5_5 0
x_0_6_0 0
x_0_6_1 0
x_0_6_2 0
x_0_6_3 0
x_0_6_4 0
x_0_6_5 0
x_0_7_0 0
x_0_7_1 -2.9976021664879227e-15
x_0_7_2 0
x_0_7_3 0
x_0_7_4 -9.9920072216264089e-16
x_0_7_5 0
x_0_8_0 -1.1102230246251565e-16
x_0_8_1 0
x_0_8_2 1.0000000000000011e+00
x_0_8_3 9.9999999999999845e-01
x_0_8_4 0
x_0_8_5 0
x_0_9_0 0
x_0_9_1 0
x_0_9_2 0
x_0_9_3 0
x_0_9_4 0
x_0_9_5 0
x_0_10_0 0
x_0_10_1 0
x_0_10_2 0
x_0_10_3 0
x_0_10_4 0
x_0_10_5 0
x_0_11_0 0
x_0_11_1 5.2180482157382357e-15
x_0_11_2 9.9999999999999889e-01
x_0_11_3 1.0000000000000027e+00
x_0_11_4 -4.4408920985006262e-16
x_0_11_5 0
x_0_12_0 0
x_0_12_1 0
x_0_12_2 0
x_0_12_3 0
x_0_12_4 0
x_0_12_5 0
x_0_13_0 0
x_0_13_1 0
x_0_13_2 0
x_0_13_3 0
x_0_13_4 0
x_0_13_5 0
x_0_14_0 0
x_0_14_1 9.9999999999999689e-01
x_0_14_2 0
x_0_14_3 0
x_0_14_4 1.0000000000000013e+00
x_0_14_5 0
x_0_15_0 0
x_0_15_1 1.0000000000000009e+00
x_0_15_2 0
x_0_15_3 -1.1657341758564144e-15
x_0_15_4 1.0000000000000007e+00
x_0_15_5 0
x_1_2_0 0
x_1_2_1 0
x_1_2_2 0
x_1_2_3 0
x_1_2_4 0
x_1_2_5 0
x_1_3_0 0
x_1_3_1 0
x_1_3_2 0
x_1_3_3 0
x_1_3_4 0
x_1_3_5 0
x_1_4_0 0
x_1_4_1 1.0000000000000009e+00
x_1_4_2 0
x_1_4_3 0
x_1_4_4 1
x_1_4_5 0
x_1_5_0 0
x_1_5_1 0
x_1_5_2 0
x_1_5_3 0
x_1_5_4 0
x_1_5_5 0
x_1_6_0 0
x_1_6_1 -7.7715611723760958e-16
x_1_6_2 0
x_1_6_3 0
x_1_6_4 1.9984014443252818e-15
x_1_6_5 0
x_1_7_0 0
x_1_7_1 0
x_1_7_2 0
x_1_7_3 0
x_1_7_4 0
x_1_7_5 0
x_1_8_0 0
x_1_8_1 0
x_1_8_2 0
x_1_8_3 0
x_1_8_4 0
x_1_8_5 0
x_1_9_0 0
x_1_9_1 0
x_1_9_2 0
x_1_9_3 0
x_1_9_4 0
x_1_9_5 0
x_1_10_0 0
x_1_10_1 1
x_1_10_2 0
x_1_10_3 0
x_1_10_4 9.9999999999999778e-01
x_1_10_5 0
x_1_11_0 0
x_1_11_1 0
x_1_11_2 0
x_1_11_3 0
x_1_11_4 0
x_1_11_5 0
x_1_12_0 0
x_1_12_1 0
x_1_12_2 0
x_1_12_3 0
x_1_12_4 0
x_1_12_5 0
x_1_13_0 0
x_1_13_1 2.7755575615628914e-17
x_1_13_2 0
x_1_13_3 0
x_1_13_4 0
x_1_13_5 0
x_1_14_0 0
x_1_14_1 0
x_1_14_2 0
x_1_14_3 0
x_1_14_4 0
x_1_14_5 0
x_1_15_0 0
x_1_15_1 0
x_1_15_2 0
x_1_15_3 0
x_1_15_4 0
x_1_15_5 0
x_2_3_0 0
x_2_3_1 0
x_2_3_2 -1.6653345369377348e-15
x_2_3_3 0
x_2_3_4 0
x_2_3_5 0
x_2_4_0 0
x_2_4_1 1.0000000000000024e+00
x_2_4_2 0
x_2_4_3 -4.4408920985006262e-16
x_2_4_4 1
x_2_4_5 0
x_2_5_0 0
x_2_5_1 0
x_2_5_2 0
x_2_5_3 0
x_2_5_4 0
x_2_5_5 0
x_2_6_0 0
x_2_6_1 0
x_2_6_2 0
x_2_6_3 0
x_2_6_4 0
x_2_6_5 0
x_2_7_0 0
x_2_7_1 0
x_2_7_2 0
x_2_7_3 0
x_2_7_4 0
x_2_7_5 0
x_2_8_0 0
x_2_8_1 0
x_2_8_2 0
x_2_8_3 0
x_2_8_4 0
x_2_8_5 0
x_2_9_0 0
x_2_9_1 0
x_2_9_2 0
x_2_9_3 0
x_2_9_4 0
x_2_9_5 0
x_2_10_0 0
x_2_10_1 0
x_2_10_2 0
x_2_10_3 -1.1102230246251565e-15
x_2_10_4 0
x_2_10_5 0
x_2_11_0 0
x_2_11_1 0
x_2_11_2 0
x_2_11_3 0
x_2_11_4 0
x_2_11_5 0
x_2_12_0 0
x_2_12_1 1.0000000000000024e+00
x_2_12_2 0
x_2_12_3 -4.44089209850065e-16
x_2_12_4 1
x_2_12_5 0
x_2_13_0 0
x_2_13_1 0
x_2_13_2 0
x_2_13_3 8.1805907077643279e-16
x_2_13_4 0
x_2_13_5 0
x_2_14_0 0
x_2_14_1 0
x_2_14_2 0
x_2_14_3 0
x_2_14_4 0
x_2_14_5 0
x_2_15_0 0
x_2_15_1 0
x_2_15_2 0
x_2_15_3 0
x_2_15_4 0
x_2_15_5 0
x_3_4_0 0
x_3_4_1 -1.1657341758564144e-15
x_3_4_2 0
x_3_4_3 0
x_3_4_4 0
x_3_4_5 0
x_3_5_0 0
x_3_5_1 0
x_3_5_2 0
x_3_5_3 0
x_3_5_4 0
x_3_5_5 0
x_3_6_0 0
x_3_6_1 0
x_3_6_2 0
x_3_6_3 0
x_3_6_4 0
x_3_6_5 0
x_3_7_0 0
x_3_7_1 1.0000000000000007e+00
x_3_7_2 0
x_3_7_3 0
x_3_7_4 9.9999999999999933e-01
x_3_7_5 4.4408920985006419e-16
x_3_8_0 0
x_3_8_1 0
x_3_8_2 0
x_3_8_3 0
x_3_8_4 0
x_3_8_5 0
x_3_9_0 0
x_3_9_1 0
x_3_9_2 0
x_3_9_3 0
x_3_9_4 0
x_3_9_5 0
x_3_10_0 0
x_3_10_1 0
x_3_10_2 0
x_3_10_3 0
x_3_10_4 0
x_3_10_5 0
x_3_11_0 0
x_3_11_1 0
x_3_11_2 0
x_3_11_3 0
x_3_11_4 0
x_3_11_5 0
x_3_12_0 0
x_3_12_1 1
x_3_12_2 1.1102230246251565e-16
x_3_12_3 0
x_3_12_4 1
x_3_12_5 0
x_3_13_0 0
x_3_13_1 0
x_3_13_2 1.6653345369377348e-15
x_3_13_3 0
x_3_13_4 0
x_3_13_5 0
x_3_14_0 0
x_3_14_1 0
x_3_14_2 0
x_3_14_3 0
x_3_14_4 0
x_3_14_5 0
x_3_15_0 0
x_3_15_1 0
x_3_15_2 0
x_3_15_3 0
x_3_15_4 0
x_3_15_5 0
x_4_5_0 0
x_4_5_1 0
x_4_5_2 0
x_4_5_3 0
x_4_5_4 0
x_4_5_5 0
x_4_6_0 0
x_4_6_1 0
x_4_6_2 0
x_4_6_3 0
x_4_6_4 0
x_4_6_5 0
x_4_7_0 0
x_4_7_1 0
x_4_7_2 0
x_4_7_3 0
x_4_7_4 0
x_4_7_5 0
x_4_8_0 0
x_4_8_1 0
x_4_8_2 0
x_4_8_3 0
x_4_8_4 0
x_4_8_5 0
x_4_9_0 0
x_4_9_1 0
x_4_9_2 0
x_4_9_3 0
x_4_9_4 0
x_4_9_5 0
x_4_10_0 0
x_4_10_1 0
x_4_10_2 -1.9984014443252818e-15
x_4_10_3 4.4408920985006262e-16
x_4_10_4 0
x_4_10_5 0
x_4_11_0 0
x_4_11_1 0
x_4_11_2 0
x_4_11_3 0
x_4_11_4 0
x_4_11_5 0
x_4_12_0 0
x_4_12_1 0
x_4_12_2 0
x_4_12_3 0
x_4_12_4 0
x_4_12_5 0
x_4_13_0 0
x_4_13_1 0
x_4_13_2 0
x_4_13_3 0
x_4_13_4 0
x_4_13_5 0
x_4_14_0 0
x_4_14_1 0
x_4_14_2 0
x_4_14_3 0
x_4_14_4 0
x_4_14_5 0
x_4_15_0 0
x_4_15_1 0
x_4_15_2 0
x_4_15_3 0
x_4_15_4 0
x_4_15_5 0
x_5_6_0 0
x_5_6_1 9.9999999999999878e-01
x_5_6_2 0
x_5_6_3 9.9999999999999922e-01
x_5_6_4 9.9999999999999944e-01
x_5_6_5 -2.6645352591003757e-15
x_5_7_0 0
x_5_7_1 0
x_5_7_2 0
x_5_7_3 0
x_5_7_4 0
x_5_7_5 0
x_5_8_0 1.5543122344752192e-15
x_5_8_1 0
x_5_8_2 0
x_5_8_3 0
x_5_8_4 0
x_5_8_5 0
x_5_9_0 0
x_5_9_1 0
x_5_9_2 0
x_5_9_3 0
x_5_9_4 0
x_5_9_5 -4.1078251911130792e-15
x_5_10_0 0
x_5_10_1 0
x_5_10_2 9.9920072216264089e-16
x_5_10_3 0
x_5_10_4 0
x_5_10_5 0
x_5_11_0 0
x_5_11_1 0
x_5_11_2 0
x_5_11_3 0
x_5_11_4 0
x_5_11_5 0
x_5_12_0 0
x_5_12_1 0
x_5_12_2 0
x_5_12_3 0
x_5_12_4 0
x_5_12_5 0
x_5_13_0 0
x_5_13_1 0
x_5_13_2 0
x_5_13_3 0
x_5_13_4 0
x_5_13_5 0
x_5_14_0 1.1102230246251565e-15
x_5_14_1 9.9999999999999922e-01
x_5_14_2 8.8817841970012523e-16
x_5_14_3 9.9999999999999922e-01
x_5_14_4 1.0000000000000011e+00
x_5_14_5 -2.8588242884097781e-15
x_5_15_0 0
x_5_15_1 0
x_5_15_2 0
x_5_15_3 0
x_5_15_4 0
x_5_15_5 0
x_6_7_0 0
x_6_7_1 0
x_6_7_2 0
x_6_7_3 0
x_6_7_4 0
x_6_7_5 0
x_6_8_0 0
x_6_8_1 0
x_6_8_2 0
x_6_8_3 0
x_6_8_4 0
x_6_8_5 0
x_6_9_0 0
x_6_9_1 0
x_6_9_2 0
x_6_9_3 0
x_6_9_4 0
x_6_9_5 0
x_6_10_0 0
x_6_10_1 -1.0693200710863295e-15
x_6_10_2 0
x_6_10_3 1
x_6_10_4 1.0000000000000004e+00
x_6_10_5 1.8873791418627661e-15
x_6_11_0 0
x_6_11_1 0
x_6_11_2 0
x_6_11_3 0
x_6_11_4 0
x_6_11_5 0
x_6_12_0 0
x_6_12_1 0
x_6_12_2 0
x_6_12_3 0
x_6_12_4 0
x_6_12_5 0
x_6_13_0 0
x_6_13_1 1.0000000000000011e+00
x_6_13_2 0
x_6_13_3 1.1102230246251565e-16
x_6_13_4 -1.5265566588595902e-15
x_6_13_5 1.8873791418627661e-15
x_6_14_0 0
x_6_14_1 1.5543122344752192e-15
x_6_14_2 0
x_6_14_3 9.9920072216264089e-16
x_6_14_4 -7.9797279894933126e-16
x_6_14_5 3.2474023470285829e-15
x_6_15_0 0
x_6_15_1 0
x_6_15_2 0
x_6_15_3 0
x_6_15_4 0
x_6_15_5 0
x_7_8_0 0
x_7_8_1 0
x_7_8_2 0
x_7_8_3 0
x_7_8_4 0
x_7_8_5 0
x_7_9_0 0
x_7_9_1 0
x_7_9_2 0
x_7_9_3 0
x_7_9_4 0
x_7_9_5 0
x_7_10_0 0
x_7_10_1 0
x_7_10_2 0
x_7_10_3 0
x_7_10_4 0
x_7_10_5 0
x_7_11_0 0
x_7_11_1 0
x_7_11_2 0
x_7_11_3 6.9388939039072284e-16
x_7_11_4 1.4988010832439613e-15
x_7_11_5 2.7755575615628914e-16
x_7_12_0 0
x_7_12_1 0
x_7_12_2 0
x_7_12_3 4.44089209850065e-16
x_7_12_4 0
x_7_12_5 0
x_7_13_0 0
x_7_13_1 0
x_7_13_2 0
x_7_13_3 9.9999999999999889e-01
x_7_13_4 0
x_7_13_5 0
x_7_14_0 0
x_7_14_1 0
x_7_14_2 0
x_7_14_3 0
x_7_14_4 0
x_7_14_5 0
x_7_15_0 0
x_7_15_1 1.0000000000000009e+00
x_7_15_2 0
x_7_15_3 9.9999999999999889e-01
x_7_15_4 9.9999999999999933e-01
x_7_15_5 -1.6098233857064770e-15
x_8_9_0 0
x_8_9_1 0
x_8_9_2 1.0000000000000004e+00
x_8_9_3 9.9999999999999512e-01
x_8_9_4 -1.3877787807814457e-17
x_8_9_5 2.55351295663786e-15
x_8_10_0 0
x_8_10_1 0
x_8_10_2 0
x_8_10_3 0
x_8_10_4 0
x_8_10_5 0
x_8_11_0 0
x_8_11_1 0
x_8_11_2 1.2559397966072083e-15
x_8_11_3 0
x_8_11_4 0
x_8_11_5 0
x_8_12_0 0
x_8_12_1 0
x_8_12_2 0
x_8_12_3 0
x_8_12_4 0
x_8_12_5 0
x_8_13_0 0
x_8_13_1 0
x_8_13_2 0
x_8_13_3 0
x_8_13_4 0
x_8_13_5 0
x_8_14_0 8.8817841970012523e-16
x_8_14_1 0
x_8_14_2 -7.7715611723760958e-16
x_8_14_3 6.5503158452884236e-15
x_8_14_4 -8.7430063189231078e-16
x_8_14_5 0
x_8_15_0 -2.8865798640254070e-15
x_8_15_1 0
x_8_15_2 -1.7208456881689926e-15
x_8_15_3 0
x_8_15_4 0
x_8_15_5 0
x_9_10_0 0
x_9_10_1 0
x_9_10_2 1.6653345369377348e-16
x_9_10_3 0
x_9_10_4 0
x_9_10_5 0
x_9_11_0 0
x_9_11_1 0
x_9_11_2 0.999999999999997
x_9_11_3 0
x_9_11_4 0
x_9_11_5 0
x_9_12_0 0
x_9_12_1 0
x_9_12_2 0
x_9_12_3 0
x_9_12_4 0
x_9_12_5 0
x_9_13_0 0
x_9_13_1 0
x_9_13_2 -1.27675647831893e-15
x_9_13_3 0
x_9_13_4 0
x_9_13_5 0
x_9_14_0 0
x_9_14_1 2.1233015345956119e-15
x_9_14_2 0
x_9_14_3 9.9999999999999323e-01
x_9_14_4 3.7192471324942744e-15
x_9_14_5 -9.9920072216264089e-16
x_9_15_0 0
x_9_15_1 0
x_9_15_2 1.6653345369377348e-15
x_9_15_3 2.55351295663786e-15
x_9_15_4 2.2204460492503131e-16
x_9_15_5 1.1102230246251565e-16
x_10_11_0 0
x_10_11_1 0
x_10_11_2 0
x_10_11_3 0
x_10_11_4 0
x_10_11_5 0
x_10_12_0 0
x_10_12_1 0
x_10_12_2 0
x_10_12_3 0
x_10_12_4 0
x_10_12_5 0
x_10_13_0 0
x_10_13_1 1.0000000000000011e+00
x_10_13_2 -6.2523086123626844e-16
x_10_13_3 1.0000000000000002e+00
x_10_13_4 -1.8873791418627661e-15
x_10_13_5 1.8873791418627661e-15
x_10_14_0 0
x_10_14_1 0
x_10_14_2 0
x_10_14_3 0
x_10_14_4 0
x_10_14_5 0
x_10_15_0 0
x_10_15_1 0
x_10_15_2 0
x_10_15_3 0
x_10_15_4 0
x_10_15_5 0
x_11_12_0 0
x_11_12_1 0
x_11_12_2 0
x_11_12_3 0
x_11_12_4 0
x_11_12_5 0
x_11_13_0 0
x_11_13_1 0
x_11_13_2 0
x_11_13_3 0
x_11_13_4 0
x_11_13_5 0
x_11_14_0 0
x_11_14_1 0
x_11_14_2 0
x_11_14_3 0
x_11_14_4 0
x_11_14_5 0
x_11_15_0 0
x_11_15_1 0
x_11_15_2 2.4424906541753444e-15
x_11_15_3 9.9999999999999756e-01
x_11_15_4 -7.2164496600635175e-16
x_11_15_5 0
x_12_13_0 0
x_12_13_1 0
x_12_13_2 -2.7755575615628914e-15
x_12_13_3 0
x_12_13_4 0
x_12_13_5 0
x_12_14_0 0
x_12_14_1 0
x_12_14_2 0
x_12_14_3 0
x_12_14_4 0
x_12_14_5 0
x_12_15_0 0
x_12_15_1 0
x_12_15_2 0
x_12_15_3 0
x_12_15_4 0
x_12_15_5 0
x_13_14_0 0
x_13_14_1 0
x_13_14_2 0
x_13_14_3 0
x_13_14_4 -1.3183898417423734e-16
x_13_14_5 0
x_13_15_0 0
x_13_15_1 0
x_13_15_2 0
x_13_15_3 0
x_13_15_4 0
x_13_15_5 0
x_14_15_0 0
x_14_15_1 0
x_14_15_2 0
x_14_15_3 0
x_14_15_4 0
x_14_15_5 0
